rehearsal = [[1,1,1,1,1,0,0,1,0,0], [0,1,1,1,1,1,0,1,1,1], [1,1,1,1,0,0,1,1,1,1], [1,1,1,0,1,1,1,1,1,1], [1,1,1,0,1,1,1,1,1,0], [1,1,0,0,0,0,0,1,0,0], [1,0,1,1,0,0,1,0,0,1], [0,1,0,1,1,0,1,0,0,1], [1,1,1,0,0,0,1,0,1,1], [1,0,1,1,0,1,1,0,1,1], [0,0,1,1,1,0,0,1,0,1], [0,1,1,0,1,0,1,0,1,1], [1,1,1,1,0,1,0,1,1,1], [0,1,0,1,1,0,1,1,1,1], [1,1,1,1,0,1,0,1,1,1], [1,0,1,0,1,1,1,1,0,0], [0,1,0,1,1,1,0,1,1,1], [0,1,1,1,0,1,1,1,1,1], [1,0,1,1,0,1,0,0,1,1], [1,1,1,1,1,1,1,0,1,1], [0,0,1,0,1,1,0,1,0,1], [0,0,1,0,0,1,0,0,0,1], [0,0,1,0,1,1,1,0,0,1], [0,0,1,0,1,0,0,1,1,0], [1,1,1,1,1,0,1,1,1,0]];
permutations = [5,7,10,6,3,9,8,1,2,4];